% demand
num_movements = 21;
loading_factor = [1350, 1450, 950, 1450, 1050, 850, 1850, 1900, 1250, 1400, 1700, 1050, 1050, 1500, 1000, 1400, 1800, 1800, 950, 1100, 950];
pickup_time = [0, 0, 0, 0, 0, 1, 1, 2, 2, 2, 3, 3, 3, 3, 3, 4, 4, 5, 8, 9, 9];
delivery_time = [1, 1, 3, 1, 1, 3, 2, 3, 3, 3, 4, 4, 4, 8, 4, 7, 10, 11, 11, 10, 11];

% transporter definition
total_capacity = 7000;
num_decks = 3;
capacity = [3000, 1000, 3000];

% ways out of decks
num_ways_out = 1;
paths_out = array3d(decks, ways_out, decks, [
% ways out of deck d1
2, 3, 0, 

% ways out of deck d2
3, 0, 0, 

% ways out of deck d3
0, 0, 0,	

]);

